benchmarks_CP/INST_49x49/50/inst49x49_50_22.dzn
S=7;
start=[|
-1,	-1,	-1,	33,	27,	30,	12,	-1,	-1,	29,	-1,	13,	-1,	7,	31,	24,	17,	26,	-1,	-1,	4,	-1,	-1,	36,	-1,	-1,	6,	-1,	-1,	-1,	-1,	11,	35,	3,	-1,	-1,	-1,	14,	37,	46,	-1,	-1,	-1,	-1,	-1,	-1,	-1,	32,	42|
15,	41,	32,	-1,	17,	-1,	43,	-1,	-1,	16,	-1,	45,	-1,	-1,	-1,	-1,	42,	-1,	49,	35,	30,	25,	-1,	39,	31,	24,	27,	22,	-1,	5,	-1,	-1,	23,	-1,	20,	44,	-1,	47,	19,	-1,	33,	-1,	46,	-1,	38,	-1,	4,	-1,	-1|
24,	-1,	-1,	-1,	-1,	10,	-1,	26,	-1,	-1,	23,	14,	-1,	34,	40,	37,	-1,	-1,	-1,	12,	-1,	3,	-1,	8,	44,	-1,	-1,	-1,	-1,	9,	-1,	27,	-1,	-1,	41,	35,	-1,	13,	-1,	4,	-1,	-1,	-1,	15,	48,	28,	-1,	-1,	-1|
-1,	-1,	6,	20,	21,	-1,	3,	-1,	4,	17,	-1,	-1,	28,	-1,	-1,	23,	45,	-1,	-1,	-1,	-1,	13,	-1,	9,	37,	47,	10,	-1,	-1,	-1,	34,	22,	-1,	-1,	43,	5,	41,	-1,	-1,	-1,	-1,	12,	30,	35,	24,	-1,	19,	44,	14|
19,	-1,	-1,	31,	-1,	35,	39,	-1,	-1,	43,	-1,	-1,	22,	-1,	21,	-1,	32,	-1,	-1,	-1,	-1,	-1,	-1,	12,	4,	-1,	14,	-1,	47,	15,	28,	-1,	-1,	2,	-1,	17,	42,	-1,	6,	-1,	7,	18,	-1,	26,	-1,	25,	34,	-1,	-1|
14,	47,	37,	-1,	28,	40,	16,	-1,	18,	-1,	-1,	9,	6,	35,	20,	13,	19,	27,	-1,	-1,	-1,	-1,	2,	-1,	33,	-1,	-1,	-1,	8,	-1,	25,	-1,	-1,	-1,	-1,	32,	-1,	-1,	39,	23,	-1,	-1,	5,	21,	31,	-1,	36,	43,	3|
5,	-1,	-1,	25,	46,	4,	-1,	41,	-1,	-1,	-1,	48,	-1,	39,	-1,	-1,	-1,	7,	-1,	22,	14,	-1,	35,	-1,	43,	20,	30,	23,	31,	40,	-1,	6,	17,	-1,	21,	9,	-1,	8,	3,	-1,	24,	36,	-1,	1,	-1,	37,	-1,	2,	-1|
33,	-1,	-1,	26,	31,	43,	-1,	-1,	-1,	22,	-1,	-1,	45,	-1,	-1,	35,	-1,	-1,	32,	-1,	11,	-1,	13,	-1,	14,	12,	-1,	-1,	-1,	-1,	-1,	-1,	27,	15,	-1,	25,	5,	37,	38,	44,	-1,	4,	7,	34,	9,	-1,	-1,	24,	-1|
38,	40,	-1,	46,	-1,	25,	2,	13,	11,	48,	26,	-1,	-1,	-1,	14,	-1,	-1,	34,	9,	27,	-1,	7,	-1,	31,	17,	-1,	-1,	43,	4,	16,	-1,	41,	6,	20,	42,	3,	-1,	32,	15,	-1,	39,	30,	-1,	-1,	23,	44,	35,	-1,	36|
-1,	5,	27,	-1,	-1,	-1,	-1,	32,	36,	35,	-1,	-1,	-1,	-1,	7,	-1,	-1,	-1,	-1,	-1,	-1,	21,	49,	-1,	-1,	25,	44,	10,	33,	-1,	37,	-1,	9,	-1,	14,	-1,	46,	31,	23,	29,	-1,	47,	-1,	-1,	43,	-1,	42,	45,	-1|
47,	-1,	42,	-1,	35,	34,	-1,	38,	29,	-1,	-1,	24,	-1,	-1,	-1,	-1,	44,	-1,	-1,	4,	12,	-1,	27,	46,	-1,	36,	15,	45,	30,	49,	17,	-1,	18,	8,	31,	-1,	-1,	6,	-1,	-1,	-1,	-1,	21,	22,	-1,	-1,	1,	25,	-1|
20,	17,	44,	-1,	48,	-1,	-1,	18,	-1,	-1,	39,	4,	-1,	-1,	-1,	-1,	-1,	-1,	42,	-1,	-1,	34,	-1,	-1,	-1,	41,	16,	-1,	-1,	-1,	-1,	-1,	-1,	23,	32,	14,	21,	-1,	-1,	45,	27,	-1,	8,	-1,	11,	31,	12,	-1,	-1|
-1,	-1,	14,	16,	-1,	6,	23,	34,	-1,	44,	-1,	12,	40,	21,	24,	22,	2,	-1,	-1,	-1,	31,	35,	-1,	-1,	-1,	-1,	-1,	26,	25,	-1,	38,	7,	45,	-1,	46,	-1,	1,	-1,	-1,	-1,	-1,	-1,	17,	18,	20,	19,	47,	13,	27|
13,	-1,	7,	-1,	-1,	49,	18,	27,	3,	-1,	33,	47,	-1,	10,	-1,	-1,	1,	30,	-1,	-1,	-1,	19,	20,	24,	-1,	8,	-1,	-1,	-1,	-1,	21,	-1,	-1,	12,	11,	48,	-1,	16,	17,	-1,	-1,	-1,	38,	41,	-1,	32,	-1,	37,	39|
-1,	-1,	-1,	-1,	12,	44,	-1,	-1,	-1,	10,	4,	35,	-1,	-1,	42,	21,	29,	-1,	26,	13,	18,	-1,	-1,	-1,	-1,	-1,	2,	-1,	-1,	-1,	-1,	46,	11,	41,	3,	-1,	31,	-1,	-1,	-1,	48,	-1,	20,	-1,	-1,	27,	-1,	17,	-1|
2,	-1,	40,	-1,	-1,	-1,	-1,	-1,	-1,	45,	-1,	-1,	24,	-1,	-1,	25,	15,	28,	-1,	37,	7,	23,	-1,	-1,	22,	5,	29,	21,	26,	20,	-1,	42,	31,	-1,	4,	19,	35,	-1,	-1,	-1,	-1,	17,	3,	-1,	13,	-1,	49,	-1,	-1|
45,	23,	26,	-1,	41,	-1,	-1,	30,	-1,	33,	29,	-1,	12,	49,	-1,	39,	-1,	22,	-1,	-1,	-1,	43,	-1,	-1,	20,	-1,	7,	36,	19,	34,	-1,	-1,	-1,	-1,	-1,	-1,	-1,	40,	-1,	-1,	-1,	-1,	28,	-1,	-1,	5,	-1,	38,	-1|
-1,	-1,	10,	-1,	20,	47,	21,	11,	46,	-1,	-1,	-1,	-1,	48,	-1,	-1,	-1,	-1,	-1,	33,	-1,	18,	-1,	-1,	-1,	35,	3,	-1,	-1,	36,	8,	-1,	32,	-1,	38,	-1,	-1,	-1,	-1,	-1,	-1,	-1,	42,	9,	14,	6,	2,	26,	34|
3,	43,	-1,	-1,	36,	-1,	13,	-1,	-1,	42,	-1,	7,	-1,	-1,	4,	-1,	-1,	31,	-1,	8,	47,	-1,	-1,	-1,	48,	38,	-1,	-1,	-1,	-1,	-1,	23,	-1,	17,	35,	45,	14,	30,	20,	18,	37,	27,	22,	33,	46,	40,	-1,	41,	-1|
-1,	4,	28,	-1,	37,	33,	17,	-1,	1,	-1,	-1,	8,	16,	-1,	41,	46,	9,	45,	-1,	44,	-1,	11,	-1,	40,	32,	42,	-1,	15,	-1,	22,	7,	43,	-1,	-1,	27,	-1,	25,	-1,	-1,	26,	-1,	49,	-1,	36,	10,	21,	-1,	35,	-1|
-1,	-1,	-1,	35,	-1,	-1,	-1,	31,	-1,	39,	5,	28,	-1,	-1,	-1,	-1,	3,	6,	19,	-1,	-1,	33,	26,	-1,	-1,	-1,	-1,	25,	-1,	-1,	-1,	-1,	2,	48,	-1,	-1,	8,	36,	44,	21,	-1,	46,	-1,	11,	4,	-1,	16,	1,	-1|
37,	44,	-1,	22,	-1,	32,	7,	-1,	-1,	-1,	40,	23,	47,	28,	-1,	-1,	49,	-1,	43,	-1,	39,	15,	-1,	-1,	27,	-1,	-1,	19,	13,	33,	-1,	24,	3,	-1,	6,	-1,	29,	-1,	31,	10,	1,	-1,	-1,	-1,	-1,	8,	48,	-1,	38|
-1,	-1,	29,	-1,	-1,	45,	-1,	-1,	-1,	-1,	10,	3,	-1,	44,	23,	-1,	-1,	19,	-1,	-1,	16,	-1,	-1,	43,	6,	14,	31,	-1,	-1,	-1,	5,	-1,	-1,	-1,	18,	40,	-1,	-1,	-1,	-1,	-1,	-1,	35,	25,	-1,	-1,	-1,	-1,	-1|
-1,	9,	-1,	23,	-1,	14,	15,	-1,	-1,	-1,	-1,	-1,	-1,	-1,	-1,	-1,	13,	44,	41,	-1,	45,	12,	29,	-1,	24,	10,	-1,	2,	48,	-1,	-1,	30,	49,	1,	28,	6,	36,	34,	27,	25,	-1,	-1,	-1,	-1,	-1,	-1,	-1,	39,	40|
21,	-1,	5,	-1,	-1,	-1,	47,	17,	35,	-1,	-1,	37,	-1,	-1,	-1,	-1,	34,	-1,	-1,	-1,	-1,	-1,	1,	49,	39,	-1,	46,	3,	9,	2,	20,	29,	19,	-1,	10,	18,	-1,	11,	-1,	8,	-1,	-1,	23,	-1,	-1,	45,	-1,	42,	-1|
-1,	12,	-1,	36,	1,	38,	-1,	-1,	24,	-1,	9,	-1,	-1,	-1,	-1,	-1,	33,	5,	3,	14,	-1,	-1,	-1,	-1,	-1,	45,	20,	-1,	-1,	-1,	44,	-1,	-1,	-1,	-1,	16,	-1,	-1,	-1,	19,	23,	-1,	-1,	-1,	-1,	34,	7,	-1,	-1|
10,	-1,	17,	-1,	-1,	28,	46,	1,	25,	-1,	49,	-1,	29,	6,	-1,	20,	-1,	40,	22,	-1,	37,	-1,	-1,	16,	21,	4,	-1,	9,	38,	-1,	-1,	-1,	-1,	31,	36,	-1,	44,	-1,	42,	-1,	-1,	-1,	-1,	-1,	-1,	43,	5,	11,	24|
34,	-1,	39,	-1,	19,	-1,	31,	43,	12,	38,	36,	27,	5,	11,	17,	10,	21,	1,	24,	46,	15,	-1,	7,	-1,	-1,	26,	-1,	-1,	-1,	37,	4,	-1,	-1,	42,	-1,	-1,	33,	9,	49,	-1,	-1,	-1,	-1,	-1,	30,	-1,	-1,	29,	32|
36,	18,	2,	-1,	-1,	-1,	-1,	-1,	40,	26,	13,	-1,	4,	-1,	3,	38,	-1,	-1,	16,	-1,	1,	-1,	11,	19,	34,	-1,	-1,	27,	-1,	-1,	22,	-1,	14,	25,	49,	47,	-1,	44,	-1,	-1,	-1,	-1,	-1,	-1,	41,	29,	-1,	23,	30|
-1,	1,	30,	-1,	-1,	-1,	-1,	46,	-1,	-1,	17,	39,	-1,	47,	-1,	-1,	6,	-1,	-1,	-1,	-1,	42,	-1,	21,	26,	16,	38,	-1,	3,	23,	40,	28,	10,	37,	9,	-1,	4,	-1,	-1,	41,	5,	-1,	27,	-1,	-1,	-1,	45,	12,	8|
-1,	-1,	-1,	10,	-1,	-1,	-1,	-1,	-1,	-1,	25,	29,	-1,	-1,	28,	-1,	31,	48,	-1,	-1,	49,	32,	-1,	-1,	30,	-1,	36,	5,	-1,	-1,	-1,	18,	21,	-1,	15,	-1,	20,	-1,	14,	27,	-1,	33,	44,	-1,	-1,	4,	-1,	22,	-1|
16,	-1,	-1,	27,	23,	-1,	-1,	35,	-1,	24,	-1,	42,	32,	5,	44,	36,	-1,	25,	20,	-1,	-1,	48,	-1,	-1,	47,	43,	-1,	-1,	-1,	-1,	33,	26,	-1,	4,	12,	-1,	10,	-1,	22,	-1,	-1,	21,	40,	13,	37,	-1,	38,	15,	31|
-1,	-1,	4,	-1,	-1,	-1,	8,	-1,	-1,	11,	-1,	2,	48,	-1,	46,	47,	-1,	35,	5,	-1,	27,	10,	-1,	-1,	-1,	-1,	23,	-1,	-1,	-1,	-1,	36,	-1,	44,	-1,	-1,	-1,	-1,	-1,	39,	6,	-1,	19,	-1,	28,	24,	-1,	-1,	-1|
48,	46,	-1,	38,	14,	39,	-1,	-1,	43,	-1,	-1,	-1,	27,	3,	-1,	-1,	30,	-1,	21,	32,	-1,	22,	-1,	-1,	40,	33,	-1,	20,	24,	-1,	-1,	-1,	-1,	-1,	-1,	31,	34,	23,	11,	17,	13,	-1,	-1,	-1,	36,	7,	-1,	18,	5|
40,	-1,	24,	-1,	-1,	12,	-1,	-1,	22,	-1,	-1,	30,	-1,	9,	-1,	-1,	37,	-1,	-1,	26,	-1,	-1,	-1,	-1,	2,	31,	45,	6,	17,	-1,	13,	-1,	-1,	27,	5,	38,	28,	-1,	35,	-1,	-1,	-1,	-1,	-1,	-1,	-1,	21,	-1,	11|
41,	14,	-1,	-1,	6,	23,	-1,	-1,	-1,	-1,	-1,	-1,	3,	-1,	-1,	5,	-1,	-1,	-1,	-1,	10,	-1,	-1,	11,	-1,	-1,	25,	-1,	18,	-1,	-1,	32,	-1,	47,	-1,	8,	-1,	33,	-1,	-1,	34,	45,	-1,	27,	15,	2,	-1,	-1,	-1|
-1,	-1,	-1,	12,	40,	2,	24,	-1,	28,	27,	-1,	-1,	-1,	-1,	22,	-1,	-1,	-1,	-1,	-1,	29,	9,	38,	-1,	-1,	-1,	37,	-1,	23,	11,	-1,	17,	-1,	-1,	-1,	7,	13,	5,	1,	35,	36,	-1,	14,	8,	-1,	-1,	30,	21,	44|
-1,	19,	-1,	-1,	-1,	17,	-1,	12,	33,	23,	47,	-1,	1,	-1,	-1,	16,	14,	-1,	-1,	-1,	24,	8,	43,	-1,	10,	27,	-1,	-1,	34,	-1,	-1,	-1,	22,	-1,	-1,	30,	40,	21,	-1,	2,	-1,	-1,	-1,	20,	42,	18,	37,	-1,	46|
27,	13,	46,	47,	-1,	15,	-1,	-1,	-1,	6,	11,	25,	-1,	30,	9,	-1,	-1,	36,	2,	-1,	-1,	24,	34,	-1,	5,	48,	26,	-1,	-1,	14,	41,	38,	28,	-1,	33,	12,	37,	29,	18,	31,	-1,	-1,	4,	45,	-1,	17,	22,	10,	-1|
-1,	-1,	38,	-1,	32,	7,	29,	22,	-1,	13,	2,	19,	-1,	-1,	-1,	6,	12,	-1,	-1,	30,	-1,	-1,	21,	-1,	-1,	44,	4,	41,	42,	-1,	15,	-1,	-1,	-1,	16,	11,	49,	46,	-1,	-1,	47,	-1,	-1,	-1,	3,	1,	31,	-1,	48|
-1,	-1,	-1,	-1,	34,	-1,	-1,	-1,	41,	31,	-1,	-1,	42,	-1,	49,	-1,	4,	13,	47,	-1,	-1,	-1,	-1,	2,	46,	-1,	-1,	28,	43,	8,	-1,	40,	-1,	24,	-1,	39,	-1,	-1,	48,	9,	19,	-1,	-1,	38,	-1,	-1,	-1,	6,	-1|
25,	37,	33,	8,	-1,	-1,	-1,	-1,	17,	-1,	-1,	-1,	-1,	-1,	43,	11,	-1,	-1,	-1,	34,	48,	16,	-1,	20,	-1,	-1,	-1,	-1,	2,	1,	-1,	-1,	-1,	36,	7,	-1,	-1,	-1,	28,	15,	-1,	44,	24,	5,	26,	41,	32,	19,	47|
49,	38,	12,	-1,	18,	11,	32,	-1,	-1,	47,	8,	36,	37,	-1,	35,	-1,	7,	20,	-1,	-1,	-1,	27,	6,	14,	15,	-1,	40,	-1,	-1,	-1,	-1,	-1,	48,	5,	-1,	42,	23,	2,	-1,	22,	16,	-1,	-1,	-1,	-1,	10,	-1,	3,	41|
-1,	21,	45,	24,	25,	-1,	26,	14,	49,	-1,	-1,	46,	-1,	18,	-1,	-1,	11,	37,	28,	-1,	-1,	-1,	-1,	10,	-1,	3,	-1,	-1,	-1,	17,	2,	-1,	-1,	9,	-1,	-1,	39,	-1,	12,	13,	-1,	-1,	-1,	-1,	27,	36,	40,	34,	22|
23,	20,	1,	-1,	47,	13,	-1,	39,	45,	40,	-1,	-1,	43,	27,	2,	-1,	-1,	49,	34,	-1,	-1,	-1,	5,	44,	-1,	37,	41,	31,	6,	-1,	-1,	19,	33,	38,	-1,	-1,	-1,	7,	36,	32,	17,	-1,	-1,	-1,	-1,	30,	-1,	-1,	21|
-1,	-1,	-1,	-1,	22,	-1,	4,	-1,	-1,	-1,	-1,	15,	25,	32,	45,	-1,	10,	-1,	-1,	-1,	13,	-1,	-1,	-1,	12,	-1,	1,	16,	40,	35,	11,	-1,	41,	-1,	39,	24,	18,	26,	-1,	-1,	8,	9,	31,	-1,	29,	-1,	-1,	14,	33|
7,	-1,	-1,	-1,	-1,	-1,	14,	21,	23,	4,	-1,	-1,	-1,	-1,	-1,	-1,	-1,	32,	33,	43,	41,	-1,	22,	42,	35,	-1,	39,	48,	28,	-1,	-1,	3,	-1,	34,	-1,	37,	-1,	49,	5,	1,	-1,	-1,	-1,	-1,	-1,	38,	15,	8,	-1|
44,	-1,	-1,	-1,	-1,	16,	-1,	-1,	-1,	-1,	31,	17,	-1,	22,	-1,	1,	-1,	12,	46,	-1,	26,	-1,	8,	13,	28,	-1,	34,	24,	-1,	45,	-1,	-1,	7,	-1,	-1,	41,	47,	-1,	-1,	14,	29,	43,	-1,	37,	-1,	-1,	-1,	-1,	-1|
46,	-1,	-1,	-1,	29,	41,	-1,	-1,	16,	-1,	1,	-1,	-1,	42,	-1,	-1,	-1,	-1,	14,	36,	-1,	-1,	-1,	45,	-1,	21,	-1,	-1,	-1,	44,	18,	-1,	-1,	43,	-1,	27,	11,	3,	-1,	-1,	-1,	35,	39,	24,	32,	23,	28,	-1,	-1|];
