sudoku-ls/benchmarks_LEQ/INST_49x49/50/inst49x49_50_22.txt
7
1
-1	-1	18	33	-1	-1	12	-1	-1	-1	20	13	-1	7	-1	24	-1	-1	-1	28	-1	5	-1	36	-1	34	-1	38	45	-1	-1	-1	-1	-1	-1	21	-1	-1	37	46	43	2	-1	40	-1	-1	-1	32	-1
15	-1	32	-1	17	48	43	37	-1	-1	-1	-1	21	-1	34	9	-1	18	-1	-1	30	-1	28	39	31	24	27	-1	36	-1	-1	-1	23	-1	-1	44	26	47	19	-1	-1	-1	46	10	38	11	4	-1	6
24	36	49	-1	-1	10	-1	26	32	-1	-1	14	33	-1	40	-1	25	-1	-1	-1	-1	3	-1	-1	44	-1	21	18	-1	9	-1	-1	38	7	41	-1	22	13	30	-1	-1	31	29	-1	-1	28	20	47	-1
42	-1	-1	-1	21	-1	-1	-1	4	17	-1	-1	-1	31	-1	-1	45	2	8	-1	-1	13	-1	-1	37	-1	-1	-1	-1	39	34	22	1	-1	-1	5	-1	27	29	49	25	12	-1	-1	-1	-1	-1	44	-1
19	-1	23	-1	38	-1	39	-1	-1	-1	27	49	22	-1	21	-1	32	11	-1	-1	-1	41	40	12	-1	29	-1	-1	-1	-1	28	33	-1	2	24	-1	42	-1	-1	48	-1	-1	13	26	45	-1	-1	16	9
14	-1	-1	44	-1	-1	-1	-1	18	-1	38	9	-1	-1	20	-1	19	27	1	41	46	-1	2	7	-1	-1	42	11	-1	29	25	-1	30	26	-1	32	-1	-1	39	-1	45	-1	-1	-1	31	-1	-1	43	-1
-1	11	13	25	46	-1	34	-1	-1	15	42	-1	44	39	47	-1	16	-1	29	-1	14	-1	-1	26	-1	20	-1	23	31	40	19	-1	-1	-1	21	9	38	-1	-1	28	-1	-1	-1	1	-1	37	-1	2	49
33	-1	-1	26	-1	43	-1	16	42	-1	6	20	-1	-1	36	-1	47	17	-1	-1	11	2	-1	-1	14	12	-1	-1	-1	19	-1	-1	-1	15	-1	-1	-1	-1	38	-1	49	4	-1	34	-1	-1	3	-1	-1
-1	40	-1	46	24	-1	2	13	11	-1	-1	1	-1	37	14	-1	-1	-1	-1	27	33	-1	-1	31	17	28	-1	43	-1	-1	-1	-1	6	20	42	3	-1	32	15	-1	-1	-1	49	29	-1	-1	-1	-1	-1
12	5	-1	-1	-1	19	-1	-1	-1	35	28	-1	-1	2	7	8	26	-1	39	-1	20	21	-1	-1	38	25	44	-1	-1	-1	-1	-1	9	40	14	13	46	-1	-1	-1	-1	47	-1	-1	43	-1	42	45	-1
-1	32	42	-1	35	-1	9	38	29	-1	-1	-1	7	-1	13	-1	-1	-1	10	4	12	-1	27	-1	23	36	-1	45	-1	49	17	-1	-1	-1	-1	20	2	-1	-1	11	-1	-1	21	-1	-1	26	-1	25	16
20	17	-1	30	-1	-1	-1	-1	15	9	-1	4	-1	25	-1	19	46	29	-1	-1	28	-1	-1	-1	-1	41	16	37	-1	47	35	13	43	23	-1	-1	-1	-1	7	45	-1	26	-1	-1	11	31	-1	40	10
29	-1	-1	-1	-1	6	-1	34	5	44	-1	12	-1	21	-1	-1	-1	41	37	-1	31	-1	-1	48	9	-1	-1	26	25	-1	-1	-1	45	28	46	36	-1	-1	10	-1	42	-1	-1	18	-1	-1	47	-1	27
13	-1	-1	-1	-1	-1	18	27	3	-1	-1	-1	-1	-1	-1	-1	-1	30	-1	25	23	-1	-1	-1	-1	8	-1	-1	-1	-1	21	2	36	12	-1	-1	9	-1	17	34	35	22	-1	41	-1	32	-1	-1	-1
39	25	-1	-1	12	-1	-1	-1	37	-1	-1	-1	-1	40	-1	-1	-1	43	26	13	-1	-1	45	-1	8	1	-1	30	-1	-1	9	-1	-1	-1	3	23	-1	-1	33	16	48	15	20	-1	47	-1	-1	17	-1
2	-1	40	-1	-1	-1	11	-1	44	-1	14	38	-1	43	-1	-1	15	28	36	-1	7	23	10	27	22	-1	29	-1	-1	20	-1	42	31	-1	-1	-1	-1	41	-1	-1	32	17	3	-1	13	-1	-1	-1	-1
45	-1	26	-1	41	-1	-1	30	-1	33	29	-1	-1	49	-1	-1	-1	-1	17	-1	-1	-1	46	-1	20	-1	7	-1	-1	-1	47	-1	-1	14	13	-1	-1	40	-1	42	-1	11	-1	-1	-1	5	-1	38	-1
-1	-1	-1	15	20	-1	-1	-1	-1	25	-1	-1	41	-1	-1	-1	23	-1	27	33	40	-1	-1	-1	16	-1	-1	-1	39	36	-1	45	32	29	-1	-1	7	4	-1	5	12	-1	42	9	-1	6	-1	26	-1
-1	-1	-1	49	-1	-1	-1	2	26	42	-1	-1	9	-1	-1	32	-1	31	11	-1	47	-1	39	-1	48	38	24	-1	10	21	1	23	-1	17	-1	-1	-1	-1	-1	-1	37	-1	-1	33	46	-1	-1	41	-1
-1	-1	-1	-1	37	-1	-1	-1	1	20	-1	-1	-1	13	41	46	-1	-1	-1	-1	38	11	-1	40	-1	-1	19	15	-1	22	7	43	24	6	-1	-1	-1	39	47	26	-1	-1	-1	-1	-1	-1	29	35	-1
32	-1	9	35	7	-1	38	-1	-1	39	5	-1	-1	-1	10	14	3	6	19	20	34	-1	26	41	-1	-1	-1	-1	37	-1	30	-1	-1	48	40	29	-1	36	-1	21	22	46	-1	-1	4	-1	-1	1	-1
-1	-1	25	-1	-1	-1	-1	-1	34	14	-1	23	47	-1	-1	-1	49	9	43	-1	39	15	42	5	-1	17	11	19	-1	33	-1	-1	3	16	-1	-1	29	-1	31	10	-1	41	36	46	21	-1	-1	-1	-1
4	49	-1	11	42	-1	33	20	39	-1	-1	-1	13	-1	-1	26	-1	-1	-1	-1	16	28	-1	-1	6	14	-1	34	-1	-1	5	-1	-1	21	18	40	32	17	46	-1	-1	24	35	-1	22	9	-1	-1	1
35	-1	20	23	-1	-1	-1	8	-1	7	-1	16	46	-1	-1	4	-1	44	-1	42	45	-1	29	38	24	-1	33	2	48	-1	32	-1	49	-1	-1	6	36	-1	27	25	-1	5	-1	-1	-1	47	17	-1	40
-1	-1	5	-1	43	24	47	-1	35	32	48	37	-1	4	6	-1	-1	-1	30	-1	-1	-1	-1	-1	39	40	46	-1	9	-1	-1	29	-1	22	-1	-1	-1	11	-1	8	14	7	-1	44	16	45	33	-1	26
-1	12	-1	-1	1	-1	-1	42	-1	30	-1	21	-1	41	32	29	-1	5	-1	14	8	37	-1	-1	25	-1	20	-1	-1	-1	-1	35	47	-1	-1	-1	43	28	-1	19	-1	39	10	-1	49	34	7	-1	15
-1	3	17	13	2	28	46	1	25	18	-1	33	29	6	27	-1	35	-1	-1	7	-1	47	-1	-1	21	4	8	-1	38	-1	-1	39	34	-1	36	15	44	-1	-1	-1	26	-1	12	14	-1	43	-1	11	-1
-1	-1	-1	18	19	-1	-1	-1	-1	38	36	27	-1	11	17	10	21	1	-1	-1	15	44	7	-1	-1	26	48	-1	-1	37	-1	25	-1	-1	-1	22	33	-1	49	-1	-1	3	-1	28	-1	-1	-1	29	32
36	-1	2	28	5	21	6	-1	40	26	-1	31	-1	-1	3	-1	43	-1	16	17	1	46	-1	-1	-1	-1	12	27	-1	-1	-1	20	-1	25	-1	-1	24	44	-1	-1	9	-1	-1	-1	41	-1	39	23	-1
-1	-1	-1	-1	15	-1	35	46	-1	-1	-1	39	18	47	33	34	-1	-1	13	-1	-1	-1	-1	-1	-1	-1	-1	-1	-1	-1	40	28	10	-1	-1	43	4	48	25	41	5	32	-1	49	2	-1	45	-1	-1
-1	26	-1	10	-1	37	-1	23	-1	-1	25	29	34	16	-1	41	-1	-1	-1	11	-1	32	-1	3	30	39	-1	5	-1	-1	-1	18	21	46	-1	-1	20	12	14	-1	40	33	-1	-1	1	-1	-1	-1	-1
16	-1	-1	27	23	-1	-1	35	-1	-1	-1	42	-1	-1	-1	-1	-1	-1	20	19	-1	-1	-1	18	-1	43	28	8	-1	30	33	-1	29	-1	-1	49	10	1	22	3	-1	-1	40	13	37	-1	-1	15	-1
-1	29	-1	-1	3	20	8	49	-1	-1	-1	2	-1	12	-1	-1	-1	35	-1	-1	-1	-1	9	37	13	7	-1	-1	41	38	31	36	-1	44	34	26	-1	18	45	39	6	-1	19	-1	-1	-1	-1	-1	-1
48	46	47	-1	14	39	25	28	-1	37	15	44	-1	-1	-1	-1	30	4	21	32	9	-1	41	35	-1	33	-1	-1	24	42	45	1	8	-1	2	-1	34	23	-1	-1	-1	16	-1	6	36	7	10	18	-1
-1	-1	-1	43	-1	-1	49	10	22	1	41	30	-1	9	-1	7	37	-1	-1	-1	42	4	-1	25	-1	31	45	-1	17	-1	-1	-1	39	27	-1	38	-1	-1	35	-1	-1	-1	-1	-1	34	-1	-1	46	-1
-1	-1	35	-1	-1	23	20	-1	48	49	-1	-1	3	26	-1	5	-1	-1	38	-1	-1	31	-1	11	-1	22	25	7	18	-1	-1	-1	-1	47	30	8	17	33	16	24	34	-1	-1	-1	15	2	-1	36	29
-1	42	-1	-1	40	2	24	4	28	27	-1	34	10	46	-1	-1	-1	33	25	3	-1	-1	38	15	45	6	-1	-1	23	11	48	-1	-1	-1	19	7	13	5	1	-1	36	-1	14	8	-1	-1	-1	-1	-1
28	-1	3	-1	9	17	-1	-1	-1	-1	47	5	-1	36	26	16	-1	15	7	45	24	8	-1	-1	-1	27	-1	-1	34	31	-1	-1	22	35	25	-1	40	-1	32	-1	41	38	-1	20	42	-1	-1	-1	46
-1	-1	46	-1	16	15	-1	-1	8	-1	11	-1	35	30	9	42	20	36	-1	1	19	-1	34	-1	5	48	-1	-1	21	-1	41	38	-1	39	-1	12	-1	29	18	31	3	-1	4	45	-1	-1	22	-1	-1
-1	39	-1	-1	32	-1	29	22	9	-1	-1	19	14	-1	37	6	-1	8	35	30	-1	-1	-1	-1	36	-1	-1	41	-1	-1	-1	-1	20	45	16	11	-1	46	-1	-1	-1	-1	34	-1	3	1	31	-1	-1
26	45	-1	21	-1	36	-1	15	-1	31	-1	18	-1	-1	49	-1	4	-1	47	-1	-1	-1	-1	2	46	30	17	28	-1	8	-1	40	5	24	37	39	-1	22	48	9	-1	-1	33	38	-1	35	-1	6	12
-1	37	33	-1	49	22	30	-1	17	-1	45	-1	39	38	-1	-1	-1	46	-1	34	-1	-1	-1	-1	-1	-1	-1	-1	-1	-1	3	9	-1	-1	-1	-1	-1	-1	28	-1	4	44	-1	-1	26	41	32	-1	-1
49	-1	-1	-1	-1	-1	-1	-1	-1	-1	-1	-1	37	33	-1	-1	-1	-1	4	9	21	27	-1	14	15	-1	40	-1	-1	-1	24	-1	48	5	29	42	-1	2	34	22	-1	-1	-1	-1	44	-1	26	3	-1
-1	21	-1	-1	-1	-1	-1	-1	-1	-1	35	46	-1	-1	48	31	11	-1	-1	-1	44	20	-1	-1	19	3	43	-1	32	17	-1	-1	-1	-1	-1	33	-1	15	12	13	-1	6	1	-1	27	-1	40	34	22
23	-1	-1	42	47	13	-1	-1	-1	-1	-1	26	43	-1	2	15	8	-1	34	16	3	29	-1	-1	-1	-1	41	31	-1	-1	14	19	33	38	-1	46	-1	7	-1	32	-1	10	-1	12	35	-1	-1	9	21
43	6	-1	17	-1	3	-1	-1	7	-1	44	-1	-1	-1	45	27	10	-1	-1	5	13	38	36	-1	-1	-1	-1	-1	-1	35	11	37	41	-1	-1	24	18	26	-1	20	-1	9	31	-1	29	49	46	14	33
7	2	-1	-1	10	-1	14	-1	-1	-1	12	6	-1	29	-1	-1	-1	-1	-1	43	41	30	-1	42	-1	18	39	48	-1	13	36	3	46	34	-1	-1	45	49	-1	1	-1	19	-1	16	-1	38	15	8	20
44	-1	-1	-1	33	16	-1	9	20	-1	31	-1	30	22	18	-1	-1	12	46	39	26	-1	-1	13	28	-1	-1	-1	-1	45	27	21	-1	-1	-1	41	-1	-1	4	-1	29	43	6	37	5	-1	11	-1	-1
46	30	15	48	29	41	-1	5	-1	-1	-1	-1	-1	42	19	-1	22	-1	-1	-1	6	-1	-1	-1	7	-1	-1	33	20	-1	18	49	-1	43	-1	-1	11	3	40	-1	-1	-1	39	-1	32	-1	-1	-1	13
49 
16 15 48 16
46 26 40 11
5 16 23 12
17 24 40 27
35 35 19 17
35 28 45 29
5 41 48 33
12 43 43 11
49 27 31 47
48 34 25 35
15 33 30 1
12 47 22 15
6 16 24 17
36 2 32 46
46 12 5 30
35 43 41 11
45 41 49 16
26 23 22 20
9 37 42 48
30 46 45 2
17 9 47 8
30 21 19 43
13 7 21 13
32 10 42 43
44 5 40 42
14 30 26 13
23 48 42 17
47 29 33 45
14 25 15 17
46 34 22 5
30 6 28 7
32 13 39 24
29 8 14 11
25 17 46 3
42 27 7 23
12 7 32 16
29 42 23 40
15 38 9 1
16 44 11 22
48 4 11 42
7 8 9 32
14 28 27 39
33 47 17 22
20 20 23 14
27 38 49 24
4 11 26 30
49 18 48 37
42 21 16 2
31 21 38 48
